sat
(= |goto_symex::&92;guard#1| true)
(= |goto_symex::&92;guard#2| false)
(= |memory_model::choice_rf_1_5_0_10_T_0| false)
(= |memory_model::choice_rf_1_5_2_25_T_1| true)
(= |memory_model::choice_rf_1_5_3_61_T_2| false)
(= |memory_model::choice_rf_2_24_0_10_T_3| false)
(= |memory_model::choice_rf_2_24_1_6_T_4| false)
(= |memory_model::choice_rf_2_24_3_61_T_5| true)
(= |memory_model::choice_rf_3_60_0_10_T_6| true)
(= |memory_model::choice_rf_3_60_1_6_T_7| false)
(= |memory_model::choice_rf_3_60_2_25_T_8| false)
(= |memory_model::choice_rf_0_45_0_8_T_9| false)
(= |memory_model::choice_rf_0_45_0_41_T_10| true)
(= |memory_model::choice_rf_0_50_0_8_T_11| false)
(= |memory_model::choice_rf_0_50_0_41_T_12| false)
(= |memory_model::choice_rf_0_50_0_46_T_13| true)
(= |memory_model::choice_rf_1_1_0_21_F_14| true)
(= |memory_model::choice_rf_1_1_2_0_F_15| false)
(= |memory_model::choice_rf_2_1_0_21_F_16| false)
(= |memory_model::choice_rf_2_1_2_0_F_17| true)
(= |memory_model::choice_rf_0_54_0_11_F_18| false)
(= |memory_model::choice_rf_0_54_1_4_F_19| false)
(= |memory_model::choice_rf_0_54_2_23_F_20| false)
(= |memory_model::choice_rf_0_54_3_59_F_21| true)
(= |memory_model::choice_rf_1_3_0_11_F_22| true)
(= |memory_model::choice_rf_1_3_2_23_F_23| false)
(= |memory_model::choice_rf_1_3_3_59_F_24| false)
(= |memory_model::choice_rf_2_22_0_11_F_25| false)
(= |memory_model::choice_rf_2_22_1_4_F_26| true)
(= |memory_model::choice_rf_2_22_3_59_F_27| false)
(= |memory_model::choice_rf_3_58_0_11_F_28| false)
(= |memory_model::choice_rf_3_58_1_4_F_29| false)
(= |memory_model::choice_rf_3_58_2_23_F_30| true)
(= |memory_model::choice_rf_0_74_0_12_F_31| false)
(= |memory_model::choice_rf_0_74_1_2_F_32| true)
(= |memory_model::choice_rf_0_71_0_13_F_33| false)
(= |memory_model::choice_rf_0_71_2_2_F_34| true)
(= |memory_model::choice_rf_0_70_0_14_F_35| false)
(= |memory_model::choice_rf_0_70_2_12_F_36| true)
(= |memory_model::choice_rf_0_73_0_15_F_37| false)
(= |memory_model::choice_rf_0_73_3_31_F_38| true)
(= |memory_model::choice_rf_3_19_0_15_F_39| false)
(= |memory_model::choice_rf_0_72_0_16_F_40| false)
(= |memory_model::choice_rf_0_72_3_45_F_41| true)
(= |memory_model::choice_rf_3_43_0_16_F_42| false)
(= |memory_model::choice_rf_0_56_0_17_F_43| false)
(= |memory_model::choice_rf_0_56_0_55_F_44| true)
(= |memory_model::choice_rf_0_69_0_18_F_45| false)
(= |memory_model::choice_rf_0_76_0_18_F_46| false)
(= |memory_model::choice_rf_0_76_0_75_F_47| true)
(= |memory_model::choice_rf_0_77_0_18_F_48| false)
(= |memory_model::choice_rf_0_77_0_75_F_49| true)
(= |memory_model::choice_rf_0_57_0_22_F_50| false)
(= |memory_model::choice_rf_0_57_2_15_F_51| false)
(= |memory_model::choice_rf_0_57_3_37_F_52| false)
(= |memory_model::choice_rf_0_57_3_57_F_53| true)
(= |memory_model::choice_rf_2_9_0_22_F_54| false)
(= |memory_model::choice_rf_2_9_0_68_F_55| false)
(= |memory_model::choice_rf_2_9_3_37_F_56| true)
(= |memory_model::choice_rf_2_9_3_57_F_57| false)
(= |memory_model::choice_rf_3_26_0_22_F_58| true)
(= |memory_model::choice_rf_3_26_0_68_F_59| false)
(= |memory_model::choice_rf_3_26_2_15_F_60| false)
(= |memory_model::choice_rf_3_46_0_22_F_61| false)
(= |memory_model::choice_rf_3_46_0_68_F_62| false)
(= |memory_model::choice_rf_3_46_2_15_F_63| true)
(= |memory_model::choice_rf_3_46_3_37_F_64| false)
(= |memory_model::choice_rf_3_27_0_23_F_65| false)
(= |memory_model::choice_rf_3_27_2_18_F_66| false)
(= |memory_model::choice_rf_3_25_0_24_F_67| false)
(= |memory_model::choice_rf_3_25_2_16_F_68| false)
(= |memory_model::choice_rf_0_62_0_25_F_69| true)
(= |memory_model::choice_rf_3_7_0_25_F_70| true)
(= |memory_model::choice_rf_3_7_0_65_F_71| false)
(= |memory_model::choice_rf_3_3_0_26_F_72| true)
(= |memory_model::choice_rf_2_7_0_27_F_73| true)
(= |memory_model::choice_rf_3_2_0_27_F_74| true)
(= |memory_model::choice_rf_3_2_2_17_F_75| false)
(= |memory_model::choice_rf_3_5_0_28_F_76| true)
(= |memory_model::choice_rf_3_24_0_28_F_77| false)
(= |memory_model::choice_rf_3_24_3_12_F_78| true)
(= |memory_model::choice_rf_3_51_0_28_F_79| false)
(= |memory_model::choice_rf_3_51_3_12_F_80| false)
(= |memory_model::choice_rf_3_51_3_33_F_81| true)
(= |memory_model::choice_rf_0_59_0_29_F_82| false)
(= |memory_model::choice_rf_0_59_3_14_F_83| true)
(= |memory_model::choice_rf_3_6_0_29_F_84| false)
(= |memory_model::choice_rf_3_6_0_64_F_85| false)
(= |memory_model::choice_rf_3_1_0_30_F_86| false)
(= |memory_model::choice_rf_2_5_0_31_F_87| false)
(= |memory_model::choice_rf_2_5_3_10_F_88| true)
(= |memory_model::choice_rf_3_0_0_31_F_89| false)
(= |memory_model::choice_rf_3_0_2_10_F_90| false)
(= |memory_model::choice_rf_3_4_0_32_F_91| false)
(= |memory_model::choice_rf_3_23_0_32_F_92| false)
(= |memory_model::choice_rf_3_23_3_13_F_93| true)
(= |memory_model::choice_rf_3_50_0_32_F_94| false)
(= |memory_model::choice_rf_3_50_3_13_F_95| false)
(= |memory_model::choice_rf_3_50_3_32_F_96| true)
(= |memory_model::choice_rf_0_61_0_35_F_97| false)
(= |memory_model::choice_rf_0_61_2_14_F_98| true)
(= |memory_model::choice_rf_0_61_3_17_F_99| false)
(= |memory_model::choice_rf_0_61_3_36_F_100| false)
(= |memory_model::choice_rf_2_4_0_35_F_101| false)
(= |memory_model::choice_rf_2_4_3_17_F_102| false)
(= |memory_model::choice_rf_2_4_3_36_F_103| true)
(= |memory_model::choice_rf_3_9_0_35_F_104| true)
(= |memory_model::choice_rf_3_9_2_14_F_105| false)
(= |memory_model::choice_rf_3_21_0_35_F_106| false)
(= |memory_model::choice_rf_3_21_2_14_F_107| false)
(= |memory_model::choice_rf_3_21_3_17_F_108| true)
(= |memory_model::choice_rf_3_49_0_35_F_109| false)
(= |memory_model::choice_rf_3_49_2_14_F_110| true)
(= |memory_model::choice_rf_3_49_3_17_F_111| false)
(= |memory_model::choice_rf_3_49_3_36_F_112| false)
(= |memory_model::choice_rf_0_63_0_36_F_113| false)
(= |memory_model::choice_rf_0_63_2_19_F_114| false)
(= |memory_model::choice_rf_0_63_3_15_F_115| false)
(= |memory_model::choice_rf_0_63_3_40_F_116| false)
(= |memory_model::choice_rf_0_63_3_56_F_117| true)
(= |memory_model::choice_rf_2_8_0_36_F_118| false)
(= |memory_model::choice_rf_2_8_0_67_F_119| false)
(= |memory_model::choice_rf_2_8_3_15_F_120| false)
(= |memory_model::choice_rf_2_8_3_40_F_121| true)
(= |memory_model::choice_rf_2_8_3_56_F_122| false)
(= |memory_model::choice_rf_3_8_0_36_F_123| true)
(= |memory_model::choice_rf_3_8_0_67_F_124| false)
(= |memory_model::choice_rf_3_8_2_19_F_125| false)
(= |memory_model::choice_rf_3_28_0_36_F_126| false)
(= |memory_model::choice_rf_3_28_0_67_F_127| false)
(= |memory_model::choice_rf_3_28_2_19_F_128| false)
(= |memory_model::choice_rf_3_28_3_15_F_129| true)
(= |memory_model::choice_rf_3_52_0_36_F_130| false)
(= |memory_model::choice_rf_3_52_0_67_F_131| false)
(= |memory_model::choice_rf_3_52_2_19_F_132| true)
(= |memory_model::choice_rf_3_52_3_15_F_133| false)
(= |memory_model::choice_rf_3_52_3_40_F_134| false)
(= |memory_model::choice_rf_0_58_0_37_F_135| false)
(= |memory_model::choice_rf_0_58_2_13_F_136| true)
(= |memory_model::choice_rf_0_58_3_18_F_137| false)
(= |memory_model::choice_rf_0_58_3_35_F_138| false)
(= |memory_model::choice_rf_2_3_0_37_F_139| false)
(= |memory_model::choice_rf_2_3_3_18_F_140| false)
(= |memory_model::choice_rf_2_3_3_35_F_141| true)
(= |memory_model::choice_rf_3_20_0_37_F_142| false)
(= |memory_model::choice_rf_3_20_2_13_F_143| false)
(= |memory_model::choice_rf_3_20_3_18_F_144| true)
(= |memory_model::choice_rf_3_47_0_37_F_145| false)
(= |memory_model::choice_rf_3_47_2_13_F_146| true)
(= |memory_model::choice_rf_3_47_3_18_F_147| false)
(= |memory_model::choice_rf_3_47_3_35_F_148| false)
(= |memory_model::choice_rf_0_60_0_38_F_149| false)
(= |memory_model::choice_rf_0_60_2_11_F_150| false)
(= |memory_model::choice_rf_0_60_3_16_F_151| false)
(= |memory_model::choice_rf_0_60_3_34_F_152| false)
(= |memory_model::choice_rf_0_60_3_55_F_153| true)
(= |memory_model::choice_rf_2_6_0_38_F_154| false)
(= |memory_model::choice_rf_2_6_0_66_F_155| false)
(= |memory_model::choice_rf_2_6_3_16_F_156| false)
(= |memory_model::choice_rf_2_6_3_34_F_157| true)
(= |memory_model::choice_rf_2_6_3_55_F_158| false)
(= |memory_model::choice_rf_3_22_0_38_F_159| false)
(= |memory_model::choice_rf_3_22_0_66_F_160| false)
(= |memory_model::choice_rf_3_22_2_11_F_161| false)
(= |memory_model::choice_rf_3_22_3_16_F_162| true)
(= |memory_model::choice_rf_3_48_0_38_F_163| false)
(= |memory_model::choice_rf_3_48_0_66_F_164| false)
(= |memory_model::choice_rf_3_48_2_11_F_165| true)
(= |memory_model::choice_rf_3_48_3_16_F_166| false)
(= |memory_model::choice_rf_3_48_3_34_F_167| false)
(= |memory_model::choice_rf_3_44_0_39_F_168| true)
(= |memory_model::choice_rf_3_44_1_0_F_169| false)
(= |memory_model::choice_rf_3_30_0_19_F_170| false)
(= |memory_model::choice_rf_3_30_2_21_F_171| false)
(= |memory_model::choice_rf_3_29_0_20_F_172| false)
(= |memory_model::choice_rf_3_29_2_20_F_173| false)
(= |memory_model::choice_ws-ext_0_10_1_6_T_174| true)
(= |memory_model::choice_ws-ext_0_10_2_25_T_175| true)
(= |memory_model::choice_ws-ext_0_10_3_61_T_176| true)
(= |memory_model::choice_ws-ext_1_6_2_25_T_177| false)
(= |memory_model::choice_ws-ext_1_6_3_61_T_178| false)
(= |memory_model::choice_ws-ext_2_25_3_61_T_179| false)
(= |memory_model::choice_ws-ext_0_21_2_0_F_180| true)
(= |memory_model::choice_ws-ext_0_11_1_4_F_181| true)
(= |memory_model::choice_ws-ext_0_11_2_23_F_182| true)
(= |memory_model::choice_ws-ext_0_11_3_59_F_183| true)
(= |memory_model::choice_ws-ext_1_4_2_23_F_184| true)
(= |memory_model::choice_ws-ext_1_4_3_59_F_185| true)
(= |memory_model::choice_ws-ext_2_23_3_59_F_186| true)
(= |memory_model::choice_ws-ext_0_12_1_2_F_187| true)
(= |memory_model::choice_ws-ext_0_13_2_2_F_188| true)
(= |memory_model::choice_ws-ext_0_14_2_12_F_189| true)
(= |memory_model::choice_ws-ext_0_15_3_31_F_190| true)
(= |memory_model::choice_ws-ext_0_16_3_45_F_191| true)
(= |memory_model::choice_ws-ext_0_22_2_15_F_192| true)
(= |memory_model::choice_ws-ext_0_22_3_37_F_193| true)
(= |memory_model::choice_ws-ext_0_22_3_57_F_194| true)
(= |memory_model::choice_ws-ext_0_68_2_15_F_195| false)
(= |memory_model::choice_ws-ext_0_68_3_37_F_196| false)
(= |memory_model::choice_ws-ext_0_68_3_57_F_197| false)
(= |memory_model::choice_ws-ext_2_15_3_37_F_198| false)
(= |memory_model::choice_ws-ext_2_15_3_57_F_199| true)
(= |memory_model::choice_ws-ext_0_23_2_18_F_200| true)
(= |memory_model::choice_ws-ext_0_23_3_39_F_201| true)
(= |memory_model::choice_ws-ext_2_18_3_39_F_202| false)
(= |memory_model::choice_ws-ext_0_24_2_16_F_203| true)
(= |memory_model::choice_ws-ext_0_24_3_38_F_204| true)
(= |memory_model::choice_ws-ext_2_16_3_38_F_205| false)
(= |memory_model::choice_ws-ext_0_27_2_17_F_206| true)
(= |memory_model::choice_ws-ext_0_28_3_12_F_207| true)
(= |memory_model::choice_ws-ext_0_28_3_33_F_208| true)
(= |memory_model::choice_ws-ext_0_28_3_54_F_209| true)
(= |memory_model::choice_ws-ext_0_29_3_14_F_210| true)
(= |memory_model::choice_ws-ext_0_64_3_14_F_211| false)
(= |memory_model::choice_ws-ext_0_30_3_11_F_212| true)
(= |memory_model::choice_ws-ext_0_31_2_10_F_213| true)
(= |memory_model::choice_ws-ext_0_31_3_10_F_214| true)
(= |memory_model::choice_ws-ext_2_10_3_10_F_215| false)
(= |memory_model::choice_ws-ext_0_32_3_13_F_216| true)
(= |memory_model::choice_ws-ext_0_32_3_32_F_217| true)
(= |memory_model::choice_ws-ext_0_32_3_53_F_218| true)
(= |memory_model::choice_ws-ext_0_35_2_14_F_219| true)
(= |memory_model::choice_ws-ext_0_35_3_17_F_220| true)
(= |memory_model::choice_ws-ext_0_35_3_36_F_221| true)
(= |memory_model::choice_ws-ext_2_14_3_17_F_222| false)
(= |memory_model::choice_ws-ext_2_14_3_36_F_223| false)
(= |memory_model::choice_ws-ext_0_36_2_19_F_224| true)
(= |memory_model::choice_ws-ext_0_36_3_15_F_225| true)
(= |memory_model::choice_ws-ext_0_36_3_40_F_226| true)
(= |memory_model::choice_ws-ext_0_36_3_56_F_227| true)
(= |memory_model::choice_ws-ext_0_67_2_19_F_228| false)
(= |memory_model::choice_ws-ext_0_67_3_15_F_229| false)
(= |memory_model::choice_ws-ext_0_67_3_40_F_230| false)
(= |memory_model::choice_ws-ext_0_67_3_56_F_231| false)
(= |memory_model::choice_ws-ext_2_19_3_15_F_232| false)
(= |memory_model::choice_ws-ext_2_19_3_40_F_233| false)
(= |memory_model::choice_ws-ext_2_19_3_56_F_234| true)
(= |memory_model::choice_ws-ext_0_37_2_13_F_235| true)
(= |memory_model::choice_ws-ext_0_37_3_18_F_236| true)
(= |memory_model::choice_ws-ext_0_37_3_35_F_237| true)
(= |memory_model::choice_ws-ext_2_13_3_18_F_238| false)
(= |memory_model::choice_ws-ext_2_13_3_35_F_239| false)
(= |memory_model::choice_ws-ext_0_38_2_11_F_240| true)
(= |memory_model::choice_ws-ext_0_38_3_16_F_241| true)
(= |memory_model::choice_ws-ext_0_38_3_34_F_242| true)
(= |memory_model::choice_ws-ext_0_38_3_55_F_243| true)
(= |memory_model::choice_ws-ext_0_66_2_11_F_244| false)
(= |memory_model::choice_ws-ext_0_66_3_16_F_245| false)
(= |memory_model::choice_ws-ext_0_66_3_34_F_246| false)
(= |memory_model::choice_ws-ext_0_66_3_55_F_247| false)
(= |memory_model::choice_ws-ext_2_11_3_16_F_248| false)
(= |memory_model::choice_ws-ext_2_11_3_34_F_249| false)
(= |memory_model::choice_ws-ext_2_11_3_55_F_250| true)
(= |memory_model::choice_ws-ext_0_39_1_0_F_251| true)
(= |memory_model::choice_ws-ext_0_19_2_21_F_252| true)
(= |memory_model::choice_ws-ext_0_19_3_42_F_253| true)
(= |memory_model::choice_ws-ext_2_21_3_42_F_254| false)
(= |memory_model::choice_ws-ext_0_20_2_20_F_255| true)
(= |memory_model::choice_ws-ext_0_20_3_41_F_256| true)
(= |memory_model::choice_ws-ext_2_20_3_41_F_257| false)
(= |main$tmp_guard0#3| #b00000001)
(= |__CPROVER_next_thread_id#3| #b00000000000000000000000000000001)
(= |__CPROVER_next_thread_id#6| #b00000000000000000000000000000010)
(= |__unbuffered_cnt#2| #b00000000000000000000000000000011)
(= |y$w_buff0_used#2| #b00000000)
(= |y$r_buff0_thd0#2| #b00000000)
(= |y$w_buff0#2| #b00000000000000000000000000000001)
(= |y$w_buff1_used#2| #b00000000)
(= |y$r_buff1_thd0#2| #b00000000)
(= |y$w_buff1#2| #b00000000000000000000000000000000)
(= |y#2| #b00000000000000000000000000000001)
(= |y#4| #b00000000000000000000000000000001)
(= |y$w_buff0_used#6| #b00000000)
(= |y$w_buff1_used#6| #b00000000)
(= |y$r_buff0_thd0#8| #b00000000)
(= |y$r_buff1_thd0#7| #b00000000)
(= |__unbuffered_p0_EAX#2| #b00000000000000000000000000000000)
(= |__unbuffered_p1_EAX#2| #b00000000000000000000000000000001)
(= |__unbuffered_p1_EBX#2| #b00000000000000000000000000000000)
(= |__unbuffered_p2_EAX#2| #b00000000000000000000000000000001)
(= |__unbuffered_p2_EBX#2| #b00000000000000000000000000000000)
(= |main$tmp_guard1#2| #b00000000)
(= |main$tmp_guard1#3| #b10000000)
(= |main$tmp_guard1#6| #b00000000)
(= |pthread_create::1::this_thread_id!1@0#0| #b00000000000000000000000000000000)
(= |x#2| #b00000000000000000000000000000000)
(= |__unbuffered_cnt#4| #b00000000000000000000000000000000)
(= |pthread_create::1::this_thread_id!2@0#0| #b00000000000000000000000000000000)
(= |x#5| #b00000000000000000000000000000001)
(= |nondet_symex::nondet1| #b10000000000000000000000000000000)
(= |nondet_symex::nondet2| #b10000000000000000000000000000000)
(= |y#6| #b00000000000000000000000000000000)
(= |y$w_buff0_used#11| #b00000001)
(= |y$r_buff0_thd2#2| #b00000000)
(= |y$w_buff1_used#9| #b00000000)
(= |y$r_buff1_thd2#2| #b00000000)
(= |y$w_buff0#4| #b00000000000000000000000000000001)
(= |y$w_buff1#4| #b00000000000000000000000000000000)
(= |__unbuffered_cnt#7| #b00000000000000000000000000000001)
(= |pthread_create::1::this_thread_id!3@0#0| #b10000000000000000000000000000000)
(= |y$w_buff0#7| #b00000000000000000000000000000000)
(= |y$w_buff0_used#14| #b00000000)
(= |y$r_buff0_thd0#11| #b00000000)
(= |y$r_buff1_thd0#9| #b00000000)
(= |y$r_buff1_thd0#10| #b10000000)
(= |y$r_buff0_thd1#2| #b00000000)
(= |y$r_buff1_thd1#2| #b00000000)
(= |y$r_buff1_thd1#3| #b10000000)
(= |y$r_buff0_thd2#5| #b00000000)
(= |y$r_buff1_thd2#5| #b00000000)
(= |y$r_buff1_thd2#6| #b10000000)
(= |y$r_buff0_thd3#2| #b00000000)
(= |y$r_buff1_thd3#2| #b00000000)
(= |y$r_buff1_thd3#3| #b10000000)
(= |y$r_buff0_thd3#4| #b00000001)
(= |nondet_symex::nondet4| #b00000000000000000000000000000000)
(= |weak$$choice0#3| #b00000000)
(= |weak$$choice0#4| #b10000000)
(= |nondet_symex::nondet5| #b10000000000000000000000000000000)
(= |weak$$choice2#3| #b00000001)
(= |weak$$choice2#4| #b10000000)
(= |y$flush_delayed#4| #b00000001)
(= |y$flush_delayed#5| #b10000000)
(= |y#10| #b00000000000000000000000000000000)
(= |y$mem_tmp#3| #b00000000000000000000000000000000)
(= |y$mem_tmp#4| #b10000000000000000000000000000000)
(= |y$w_buff0_used#17| #b00000001)
(= |y$r_buff0_thd3#6| #b00000001)
(= |y$w_buff1_used#13| #b00000000)
(= |y$r_buff1_thd3#5| #b00000000)
(= |y$w_buff0#10| #b00000000000000000000000000000001)
(= |y$w_buff1#8| #b00000000000000000000000000000000)
(= |y#13| #b00000000000000000000000000000001)
(= |y$w_buff0#16| #b00000000000000000000000000000001)
(= |y$w_buff1#14| #b00000000000000000000000000000000)
(= |y$w_buff0_used#29| #b00000001)
(= |y$w_buff1_used#21| #b00000000)
(= |y$r_buff0_thd3#28| #b00000001)
(= |y$r_buff1_thd3#15| #b00000000)
(= |__unbuffered_p2_EAX#4| #b00000000000000000000000000000001)
(= |__unbuffered_p2_EAX#5| #b10000000000000000000000000000000)
(= |y#17| #b00000000000000000000000000000000)
(= |y$flush_delayed#8| #b00000000)
(= |z#3| #b00000000000000000000000000000000)
(= |__unbuffered_p2_EBX#4| #b00000000000000000000000000000000)
(= |__unbuffered_p2_EBX#5| #b00000000000000000000000000000000)
(= |y$w_buff0_used#37| #b00000001)
(= |y$r_buff0_thd3#33| #b00000001)
(= |y$w_buff0#18| #b00000000000000000000000000000001)
(= |y$w_buff1_used#25| #b00000000)
(= |y$r_buff1_thd3#17| #b00000000)
(= |y$w_buff1#16| #b00000000000000000000000000000000)
(= |y#19| #b00000000000000000000000000000000)
(= |y#21| #b00000000000000000000000000000001)
(= |y$w_buff0_used#41| #b00000000)
(= |y$w_buff1_used#29| #b00000000)
(= |y$r_buff0_thd3#39| #b00000001)
(= |y$r_buff1_thd3#22| #b00000000)
(= |__unbuffered_cnt#10| #b00000000000000000000000000000010)
(= |__unbuffered_cnt#12| #b00000000000000000000000000000011)
(= |__CPROVER_threads_exited#1$wclk$8| #b01000001)
(= |__CPROVER_threads_exited#2$rclk$8| #b11110010)
(= |__CPROVER_threads_exited#5$wclk$8| #b11011111)
(= |__CPROVER_threads_exited#7$wclk$8| #b11010111)
(= |__CPROVER_threads_exited#4$rclk$8| #b11011110)
(= |__CPROVER_threads_exited#3$wclk$8| #b11111110)
(= |__CPROVER_threads_exited#6$rclk$8| #b11010110)
(= |x#1$wclk$8| #b10000110)
(= |x#2$rclk$8| #b11000100)
(= |x#4$wclk$8| #b11000111)
(= |x#5$rclk$8| #b11010000)
(= |__unbuffered_cnt#6$wclk$8| #b11010010)
(= |__unbuffered_cnt#2$rclk$8| #b11010101)
(= |__unbuffered_cnt#9$wclk$8| #b11010011)
(= |__unbuffered_cnt#13$wclk$8| #b11010100)
(= |__unbuffered_cnt#1$wclk$8| #b01000010)
(= |__unbuffered_cnt#4$rclk$8| #b11010010)
(= |__unbuffered_cnt#7$rclk$8| #b11010011)
(= |__unbuffered_cnt#10$rclk$8| #b11010100)
(= |__unbuffered_p0_EAX#4$wclk$8| #b11000100)
(= |__unbuffered_p0_EAX#2$rclk$8| #b11011101)
(= |__unbuffered_p1_EAX#4$wclk$8| #b11010000)
(= |__unbuffered_p1_EAX#2$rclk$8| #b11011101)
(= |__unbuffered_p1_EBX#4$wclk$8| #b11010001)
(= |__unbuffered_p1_EBX#2$rclk$8| #b11011101)
(= |__unbuffered_p2_EAX#6$wclk$8| #b10111111)
(= |__unbuffered_p2_EAX#2$rclk$8| #b11011101)
(= |__unbuffered_p2_EAX#1$wclk$8| #b10000000)
(= |__unbuffered_p2_EAX#5$rclk$8| #b10111111)
(= |__unbuffered_p2_EBX#6$wclk$8| #b11000000)
(= |__unbuffered_p2_EBX#2$rclk$8| #b11011101)
(= |__unbuffered_p2_EBX#1$wclk$8| #b10000001)
(= |__unbuffered_p2_EBX#5$rclk$8| #b11000000)
(= |main$tmp_guard1#5| #b00000000)
(= |y#9$wclk$8| #b11010001)
(= |y#2$rclk$8| #b11010111)
(= |y#18$wclk$8| #b10111111)
(= |y#22$wclk$8| #b11010011)
(= |y#1$wclk$8| #b10000111)
(= |y#6$rclk$8| #b11010001)
(= |y#5$wclk$8| #b11010111)
(= |y#10$rclk$8| #b10111111)
(= |y#19$rclk$8| #b11010011)
(= |y$flush_delayed#1$wclk$8| #b10001100)
(= |y$flush_delayed#5$rclk$8| #b10111111)
(= |y$flush_delayed#3$wclk$8| #b11010001)
(= |y$mem_tmp#1$wclk$8| #b10010000)
(= |y$mem_tmp#4$rclk$8| #b10111111)
(= |y$mem_tmp#2$wclk$8| #b11010001)
(= |y$r_buff0_thd0#1$wclk$8| #b10010001)
(= |y$r_buff0_thd0#11$rclk$8| #b10111101)
(= |y$r_buff0_thd0#10$wclk$8| #b11010111)
(= |y$r_buff0_thd1#1$wclk$8| #b10010010)
(= |y$r_buff0_thd1#2$rclk$8| #b10111101)
(= |y$r_buff0_thd2#1$wclk$8| #b10010011)
(= |y$r_buff0_thd2#2$rclk$8| #b11010001)
(= |y$r_buff0_thd2#5$rclk$8| #b10111101)
(= |y$r_buff0_thd2#4$wclk$8| #b11010001)
(= |y$r_buff0_thd3#1$wclk$8| #b10010100)
(= |y$r_buff0_thd3#2$rclk$8| #b10111101)
(= |y$r_buff0_thd3#6$rclk$8| #b10111111)
(= |y$r_buff0_thd3#33$rclk$8| #b11010011)
(= |y$r_buff1_thd0#11$wclk$8| #b10111101)
(= |y$r_buff1_thd0#2$rclk$8| #b11010111)
(= |y$r_buff1_thd0#1$wclk$8| #b10010101)
(= |y$r_buff1_thd0#10$rclk$8| #b10111101)
(= |y$r_buff1_thd0#8$wclk$8| #b11010111)
(= |y$r_buff1_thd1#1$wclk$8| #b10010110)
(= |y$r_buff1_thd1#3$rclk$8| #b10111101)
(= |y$r_buff1_thd2#1$wclk$8| #b10010111)
(= |y$r_buff1_thd2#2$rclk$8| #b11010001)
(= |y$r_buff1_thd2#7$wclk$8| #b10111101)
(= |y$r_buff1_thd2#6$rclk$8| #b10111101)
(= |y$r_buff1_thd2#4$wclk$8| #b11010001)
(= |y$r_buff1_thd3#1$wclk$8| #b10011000)
(= |y$r_buff1_thd3#3$rclk$8| #b10111101)
(= |y$r_buff1_thd3#5$rclk$8| #b10111111)
(= |y$r_buff1_thd3#17$rclk$8| #b11010011)
(= |y$w_buff0#6$wclk$8| #b11010001)
(= |y$w_buff0#2$rclk$8| #b11010111)
(= |y$w_buff0#9$wclk$8| #b10111101)
(= |y$w_buff0#17$wclk$8| #b10111111)
(= |y$w_buff0#1$wclk$8| #b10011011)
(= |y$w_buff0#4$rclk$8| #b11010001)
(= |y$w_buff0#7$rclk$8| #b10111101)
(= |y$w_buff0#10$rclk$8| #b10111111)
(= |y$w_buff0#18$rclk$8| #b11010011)
(= |y$w_buff0_used#13$wclk$8| #b11010001)
(= |y$w_buff0_used#2$rclk$8| #b11010111)
(= |y$w_buff0_used#16$wclk$8| #b10111101)
(= |y$w_buff0_used#36$wclk$8| #b10111111)
(= |y$w_buff0_used#45$wclk$8| #b11010011)
(= |y$w_buff0_used#1$wclk$8| #b10011100)
(= |y$w_buff0_used#11$rclk$8| #b11010001)
(= |y$w_buff0_used#10$wclk$8| #b11010111)
(= |y$w_buff0_used#14$rclk$8| #b10111101)
(= |y$w_buff0_used#17$rclk$8| #b10111111)
(= |y$w_buff0_used#37$rclk$8| #b11010011)
(= |y$w_buff1#6$wclk$8| #b11010001)
(= |y$w_buff1#2$rclk$8| #b11010111)
(= |y$w_buff1#7$wclk$8| #b10111101)
(= |y$w_buff1#15$wclk$8| #b10111111)
(= |y$w_buff1#1$wclk$8| #b10011101)
(= |y$w_buff1#4$rclk$8| #b11010001)
(= |y$w_buff1#8$rclk$8| #b10111111)
(= |y$w_buff1#16$rclk$8| #b11010011)
(= |y$w_buff1_used#11$wclk$8| #b11010001)
(= |y$w_buff1_used#2$rclk$8| #b11010111)
(= |y$w_buff1_used#12$wclk$8| #b10111101)
(= |y$w_buff1_used#24$wclk$8| #b10111111)
(= |y$w_buff1_used#31$wclk$8| #b11010011)
(= |y$w_buff1_used#1$wclk$8| #b10011110)
(= |y$w_buff1_used#9$rclk$8| #b11010001)
(= |y$w_buff1_used#8$wclk$8| #b11010111)
(= |y$w_buff1_used#13$rclk$8| #b10111111)
(= |y$w_buff1_used#25$rclk$8| #b11010011)
(= |z#1$wclk$8| #b10100000)
(= |z#3$rclk$8| #b11000000)
(= |z#2$wclk$8| #b11000001)
(= |weak$$choice0#1$wclk$8| #b10000100)
(= |weak$$choice0#4$rclk$8| #b10111111)
(= |weak$$choice0#2$wclk$8| #b11010001)
(= |weak$$choice2#1$wclk$8| #b10000101)
(= |weak$$choice2#4$rclk$8| #b10111111)
(= |weak$$choice2#2$wclk$8| #b11010001)
(= |__unbuffered_p0_EAX#1$wclk$8| #b01000011)
(= |__unbuffered_p1_EAX#1$wclk$8| #b01011000)
(= |__unbuffered_p1_EBX#1$wclk$8| #b01011001)
(= |y$flush_delayed#9$wclk$8| #b10111111)
(= |y$mem_tmp#6$wclk$8| #b10111111)
(= |y$r_buff0_thd3#5$wclk$8| #b10111101)
(= |y$r_buff0_thd3#32$wclk$8| #b10111111)
(= |y$r_buff0_thd3#41$wclk$8| #b11010011)
(= |y$r_buff1_thd1#4$wclk$8| #b10111101)
(= |y$r_buff1_thd3#4$wclk$8| #b10111101)
(= |y$r_buff1_thd3#16$wclk$8| #b10111111)
(= |y$r_buff1_thd3#23$wclk$8| #b11010011)
(= |weak$$choice0#5$wclk$8| #b10111111)
(= |weak$$choice2#12$wclk$8| #b10111111)
(= t1$43$spwnclk$8 #b10110001)
(= t1$48$spwnclk$8 #b10110110)
(= t1$53$spwnclk$8 #b10111100)
(= |main::1::t80!0@1$wclk$8| #b00000000)
(= |main::1::t81!0@1$wclk$8| #b00000001)
(= |__CPROVER_dead_object#1$wclk$8| #b00000010)
(= |__CPROVER_deallocated#1$wclk$8| #b00000011)
(= |__CPROVER_malloc_is_new_array#1$wclk$8| #b00100010)
(= |__CPROVER_malloc_object#1$wclk$8| #b00100100)
(= |__CPROVER_malloc_size#1$wclk$8| #b00100101)
(= |__CPROVER_memory_leak#1$wclk$8| #b00110010)
(= |__CPROVER_next_thread_id#1$wclk$8| #b00110011)
(= |__CPROVER_pipe_count#1$wclk$8| #b00111100)
(= |main$tmp_guard0#1$wclk$8| #b10000010)
(= |main$tmp_guard1#1$wclk$8| #b10000011)
(= |y$read_delayed#1$wclk$8| #b10011001)
(= |y$read_delayed_var#1$wclk$8| #b10011010)
(= |main::1::t79!0@1#1$wclk$8| #b10101010)
(= |__CPROVER_next_thread_id#2$wclk$8| #b10101011)
(= |main::1::t79!0@1#2$wclk$8| #b10101100)
(= |main::1::t80!0@1#1$wclk$8| #b10110010)
(= |__CPROVER_next_thread_id#3$rclk$8| #b10110011)
(= |__CPROVER_next_thread_id#5$wclk$8| #b10110011)
(= |main::1::t80!0@1#2$wclk$8| #b10110101)
(= |main::1::t81!0@1#1$wclk$8| #b10110111)
(= |__CPROVER_next_thread_id#6$rclk$8| #b10111001)
(= |__CPROVER_next_thread_id#8$wclk$8| #b10111001)
(= |main::1::t81!0@1#2$wclk$8| #b10111010)
(= |main$tmp_guard0#2$wclk$8| #b11010101)
(= |main$tmp_guard0#3$rclk$8| #b11010110)
(= |y$r_buff0_thd0#2$rclk$8| #b11010111)
(= |main$tmp_guard1#3$rclk$8| #b11011101)
(= |main$tmp_guard1#4$wclk$8| #b11011101)
(= |main$tmp_guard1#5$rclk$8| #b11111011)
(= |main$tmp_guard1#6$rclk$8| #b11111100)
(= array_of.0 @fun_7)
(= |__CPROVER_threads_exited#2| @fun_10)
(= |__CPROVER_threads_exited#4| @fun_11)
(= |__CPROVER_threads_exited#6| @fun_7)
(function @fun_7
 (type (Array (_ BitVec 32) (_ BitVec 1)))
 (= (@fun_7 #b00000000000000000000000000000000) #b0)
 (= (@fun_7 #b10000000000000000000000000000000) #b0)
 (default #b1))
(function @fun_10
 (type (Array (_ BitVec 32) (_ BitVec 1)))
 (default #b1))
(function @fun_11
 (type (Array (_ BitVec 32) (_ BitVec 1)))
 (= (@fun_11 #b00000000000000000000000000000000) #b0)
 (default #b1))

real	0m0.026s
user	0m0.020s
sys	0m0.006s
State: AC Run_time: 0.028189659118652344